\* MasterProblem *\
Minimize
OBJ: x1 + x10 + x100 + x101 + x102 + x103 + x104 + x105 + x106 + x107 + x108
 + x109 + x11 + x110 + x111 + x112 + x113 + x114 + x115 + x116 + x117 + x118
 + x119 + x12 + x120 + x121 + x122 + x123 + x124 + x125 + x126 + x127 + x128
 + x129 + x13 + x130 + x131 + x132 + x133 + x134 + x135 + x136 + x137 + x138
 + x139 + x14 + x140 + x141 + x142 + x143 + x144 + x145 + x146 + x147 + x148
 + x149 + x15 + x150 + x151 + x152 + x153 + x154 + x155 + x156 + x157 + x158
 + x159 + x16 + x160 + x161 + x162 + x163 + x164 + x165 + x166 + x167 + x168
 + x169 + x17 + x170 + x171 + x172 + x173 + x174 + x175 + x176 + x177 + x179
 + x18 + x180 + x181 + x182 + x183 + x184 + x185 + x186 + x187 + x188 + x189
 + x19 + x190 + x191 + x192 + x193 + x194 + x195 + x196 + x197 + x198 + x199
 + x2 + x20 + x200 + x201 + x202 + x203 + x204 + x205 + x206 + x207 + x208
 + x209 + x21 + x210 + x211 + x212 + x213 + x214 + x215 + x216 + x217 + x218
 + x219 + x22 + x220 + x221 + x222 + x223 + x224 + x225 + x226 + x227 + x228
 + x229 + x23 + x230 + x231 + x232 + x233 + x234 + x235 + x236 + x237 + x238
 + x239 + x24 + x240 + x241 + x242 + x243 + x244 + x245 + x246 + x247 + x248
 + x249 + x25 + x250 + x251 + x252 + x253 + x254 + x255 + x256 + x257 + x258
 + x259 + x26 + x260 + x261 + x262 + x263 + x264 + x265 + x266 + x267 + x268
 + x269 + x27 + x270 + x271 + x272 + x273 + x274 + x275 + x276 + x277 + x278
 + x279 + x28 + x280 + x281 + x282 + x283 + x284 + x285 + x286 + x287 + x288
 + x289 + x29 + x290 + x291 + x292 + x293 + x294 + x295 + x296 + x297 + x298
 + x299 + x3 + x30 + x300 + x301 + x302 + x303 + x304 + x305 + x306 + x307
 + x308 + x309 + x31 + x310 + x311 + x312 + x313 + x314 + x315 + x316 + x317
 + x318 + x319 + x32 + x320 + x321 + x322 + x323 + x324 + x325 + x326 + x327
 + x328 + x329 + x33 + x330 + x331 + x332 + x333 + x334 + x335 + x336 + x337
 + x338 + x339 + x34 + x340 + x341 + x342 + x343 + x344 + x345 + x346 + x347
 + x348 + x349 + x35 + x350 + x351 + x352 + x353 + x354 + x355 + x356 + x357
 + x358 + x359 + x36 + x360 + x361 + x362 + x363 + x364 + x365 + x366 + x367
 + x368 + x369 + x37 + x370 + x371 + x372 + x373 + x374 + x375 + x376 + x377
 + x378 + x379 + x38 + x380 + x381 + x382 + x383 + x384 + x385 + x386 + x387
 + x388 + x389 + x39 + x390 + x391 + x392 + x393 + x394 + x395 + x396 + x397
 + x398 + x399 + x4 + x40 + x400 + x401 + x402 + x403 + x404 + x405 + x406
 + x407 + x408 + x409 + x41 + x410 + x411 + x412 + x413 + x414 + x415 + x416
 + x417 + x418 + x419 + x42 + x420 + x421 + x422 + x423 + x424 + x425 + x426
 + x427 + x428 + x429 + x43 + x430 + x431 + x432 + x433 + x434 + x435 + x436
 + x437 + x438 + x439 + x44 + x440 + x441 + x442 + x443 + x444 + x445 + x446
 + x447 + x448 + x449 + x45 + x450 + x451 + x452 + x453 + x454 + x455 + x456
 + x457 + x458 + x459 + x46 + x460 + x461 + x462 + x463 + x464 + x465 + x466
 + x467 + x468 + x469 + x47 + x470 + x471 + x472 + x473 + x474 + x475 + x476
 + x477 + x478 + x479 + x48 + x480 + x481 + x482 + x483 + x484 + x485 + x486
 + x487 + x488 + x489 + x49 + x490 + x491 + x492 + x493 + x494 + x495 + x496
 + x497 + x498 + x499 + x5 + x50 + x500 + x501 + x502 + x503 + x504 + x505
 + x506 + x507 + x508 + x509 + x51 + x510 + x511 + x512 + x513 + x514 + x515
 + x516 + x517 + x518 + x519 + x52 + x520 + x521 + x522 + x523 + x524 + x525
 + x526 + x527 + x528 + x529 + x53 + x530 + x531 + x532 + x533 + x534 + x535
 + x536 + x537 + x538 + x539 + x54 + x540 + x541 + x542 + x543 + x544 + x545
 + x546 + x547 + x548 + x549 + x55 + x550 + x551 + x552 + x553 + x554 + x555
 + x556 + x557 + x558 + x559 + x56 + x560 + x561 + x562 + x563 + x564 + x565
 + x566 + x567 + x568 + x569 + x57 + x570 + x571 + x572 + x573 + x58 + x59
 + x6 + x60 + x61 + x62 + x63 + x64 + x65 + x66 + x67 + x68 + x69 + x7 + x70
 + x71 + x72 + x73 + x74 + x75 + x76 + x77 + x78 + x79 + x8 + x80 + x81 + x82
 + x83 + x84 + x85 + x86 + x87 + x88 + x89 + x9 + x90 + x91 + x92 + x93 + x94
 + x95 + x96 + x97 + x98 + x99
Subject To
C0: x1 + x524 >= 2
C1: x2 + x521 + x523 >= 4
C10: x11 + x500 + x501 + x504 >= 2
C100: x101 + 2 x254 + x359 + x363 + x535 + x554 + x571 >= 2
C101: x102 + 2 x253 + x364 >= 2
C102: x103 + 2 x252 + x365 + x572 >= 1
C103: x104 + 2 x251 + x366 + x370 >= 2
C104: x105 + 2 x250 + x367 + x557 >= 2
C105: x106 + 2 x249 + x368 + x384 >= 1
C106: x107 + x247 + x248 + x284 + x285 + x401 + x409 + x415 >= 5
C107: x108 + 2 x246 + x410 + x437 >= 1
C108: x109 + 2 x245 + x390 + x435 >= 1
C109: x110 + 2 x244 + x389 >= 1
C11: x12 + x496 + x497 + x498 + x499 + x503 + x514 + x515 >= 5
C110: x111 + x242 + x243 + x386 + x388 + x399 >= 3
C111: x112 + x241 + x243 + x387 >= 2
C112: x113 + x241 + x242 + x288 + x385 + x391 + x392 >= 4
C113: x114 + x240 + x248 + x398 + x420 + x427 + x428 >= 1
C114: x115 + x240 + x247 + 2 x297 + x400 + x414 >= 2
C115: x116 + x236 + x239 + x377 + x378 + 2 x381 + x383 + x402 + x408 + x452
 + x453 >= 5
C116: x117 + x238 + x239 + x376 + x411 + x422 >= 4
C117: x118 + 2 x237 + x403 + x404 + x413 >= 3
C118: x119 + x235 + x377 + x382 + x421 + x431 + x432 >= 1
C119: x120 + 2 x234 + x405 + x429 + x461 + x471 >= 1
C12: x13 + x491 + x494 + x563 >= 4
C120: x121 + 2 x233 + x406 + x433 + x434 + x468 >= 2
C121: x122 + x235 + x236 + x238 + x375 + x379 + x430 + x436 + x439 + x446 >= 6
C122: x123 + 2 x231 + x397 + x450 + x454 + x455 + x470 >= 1
C123: x124 + 2 x230 + x419 + x458 + x459 + x472 >= 2
C124: x125 + 2 x229 + x396 + x417 + x465 >= 1
C125: x126 + 2 x228 + x394 + x418 + x464 + x473 + x481 >= 1
C126: x127 + 2 x227 + x395 + x426 + x462 + x463 + x476 + x484 >= 2
C127: x128 + 2 x226 + x374 + x444 + x449 + x469 + x475 + x479 + x483 >= 1
C128: x129 + 2 x224 + x424 + x438 + x445 + x451 + x477 + x480 + x486 >= 4
C129: x130 + 2 x223 + x425 >= 1
C13: x14 + x488 + x490 + x493 >= 5
C130: x131 + 2 x222 + x373 + x442 + x447 >= 3
C131: x132 + x221 + 2 x232 + x369 + x371 + x456 + x534 + x547 + x554 + x563
 >= 5
C132: x133 + 2 x221 + x372 + x457 >= 3
C133: x134 + 3 x220 + x496 + x500 >= 1
C134: x135 + 3 x219 + x497 + x501 + x502 >= 2
C135: x136 + 3 x218 + x498 + x504 >= 2
C136: x137 + 3 x217 + x499 + x513 >= 3
C137: x138 + 3 x216 + x503 + x506 >= 2
C138: x139 + 3 x215 + x514 + x519 >= 2
C139: x140 + 3 x214 + x515 + x526 >= 2
C14: x15 + x487 + x489 + x492 >= 2
C140: x141 + 3 x213 + x510 >= 3
C141: x142 + 3 x212 + x508 + x511 + x517 >= 3
C142: x143 + 3 x211 + x505 + x507 + x516 >= 3
C143: x144 + 3 x210 + x509 + x512 + x518 + x525 >= 3
C144: x145 + 3 x209 + x492 + x493 + x523 >= 5
C145: x146 + 3 x208 + x489 + x490 + x494 + x524 >= 5
C146: x147 + 3 x207 + x487 + x488 + x491 + x495 >= 4
C147: x148 + 3 x206 + x485 >= 4
C148: x149 + 3 x205 + x478 + x482 >= 5
C149: x150 + x203 + 3 x204 + x474 >= 2
C15: x16 + x486 >= 2
C150: x151 + 2 x203 + x298 + x448 + 2 x529 >= 3
C151: x152 + x202 + 3 x225 + x296 + x423 + 2 x538 + x571 >= 1
C152: x153 + 2 x202 + x222 + x223 + x224 + x416 + x443 + x521 + 2 x541 + x558
 + x571 >= 4
C153: x154 + x200 + 3 x201 + x291 + x292 + x293 + x295 + x467 + 2 x543
 + 2 x552 + x565 >= 5
C154: x155 + x199 + 2 x200 + x289 + x300 + 2 x559 + 2 x560 + 2 x569 >= 1
C155: x156 + 2 x199 + x290 + x294 + x441 + x532 + 2 x542 + x544 + x565 >= 1
C156: x157 + x198 + x232 + x236 + 3 x380 + x522 + x555 + x568 + 3 x573 >= 2
C157: x158 + x197 + 2 x198 + x226 + x227 + x228 + x229 + x230 + x231 + x233
 + x234 + x235 + x237 + x286 + 3 x407 + x440 + x466 + 2 x532 + x540 + x550
 + x551 + x564 >= 8
C158: x159 + 2 x197 + x238 + x377 + x549 >= 1
C159: x160 + 4 x196 >= 3
C16: x17 + x483 + x485 >= 4
C160: x161 + 4 x195 + x239 >= 1
C161: x162 + 4 x194 >= 4
C162: x163 + 4 x193 >= 3
C163: x164 + 4 x192 + x197 >= 2
C164: x165 + 4 x191 >= 2
C165: x166 + 4 x190 + x240 + x564 >= 3
C166: x167 + 4 x189 + x198 + 2 x561 >= 4
C167: x168 + 4 x188 + x544 + x551 + x555 + 2 x556 >= 3
C168: x169 + x186 + 4 x187 + x241 + x549 + x550 + x568 >= 1
C169: x170 + x185 + 3 x186 + x242 + 2 x287 + 2 x542 + 2 x543 + 2 x545 + x554
 + x558 >= 3
C17: x18 + x484 + x495 + x525 + x526 >= 4
C170: x171 + x184 + 3 x185 + x243 + x247 + x286 + 2 x533 + 2 x538 + x540
 + 2 x541 + x570 + x573 >= 4
C171: x172 + x183 + 3 x184 + x248 + x460 + x530 + x532 + 3 x547 + x548 >= 3
C172: x173 + x182 + 3 x183 + x244 + x297 + x300 + x423 + x440 + x441 + x527
 + x528 + x537 + 2 x539 + x566 >= 5
C173: x174 + x181 + 3 x182 + x293 + x294 + x416 + x522 + x527 + 2 x559
 + 2 x562 >= 3
C174: x175 + x180 + 3 x181 + x245 + x291 + x292 + 2 x301 + x407 + x460
 + 2 x536 + x546 + x566 >= 2
C175: x176 + 3 x180 + x289 + x290 + x295 + x380 + x381 + 2 x393 + x537 + x546
 + x548 >= 3
C176: x177 + 5 x179 + x246 + x296 + x298 + 2 x412 + x528 + x530 + x570 >= 2
C18: x19 + x476 + x479 + x481 + x482 >= 4
C19: x20 + x465 + x473 + x480 >= 2
C2: x3 + x518 >= 2
C20: x21 + x417 + x464 + x472 >= 1
C21: x22 + x459 + x470 + x477 >= 2
C22: x23 + x418 + x455 + x463 + x475 + x478 >= 2
C23: x24 + x439 + x458 >= 3
C24: x25 + x434 + x446 + x454 + x462 >= 5
C25: x26 + x429 + x433 + x438 >= 1
C26: x27 + x421 + x426 + x468 + x471 + x474 >= 2
C27: x28 + x413 + x419 + x432 + x461 + x469 >= 4
C28: x29 + x422 >= 2
C29: x30 + x408 >= 2
C3: x4 + x511 >= 1
C30: x31 + x403 + x405 + x452 >= 1
C31: x32 + x400 + x402 + x411 + x425 + x450 >= 6
C32: x33 + x398 + x404 + x406 + x414 + x431 + x436 + x453 + x457 + x467 >= 5
C33: x34 + x392 + x396 + x397 + x428 + x449 + x466 >= 5
C34: x35 + x387 + x388 + x394 + x451 >= 4
C35: x36 + x389 + x395 + x399 + x427 + x430 + x444 >= 3
C36: x37 + x386 + x390 + x391 + x420 + x424 + x456 >= 2
C37: x379 + x38 + x385 + x435 + x437 + x445 + x447 >= 5
C38: x376 + x382 + x383 + x39 + x410 + x412 + x415 >= 5
C39: x374 + x375 + x384 + x393 + x40 + x443 + x534 >= 3
C4: x5 + x508 + x512 >= 2
C40: x373 + x41 + x448 + x546 + x557 >= 2
C41: x370 + x371 + x42 + x530 + x536 + x537 + x572 >= 6
C42: x365 + x367 + x368 + x378 + x409 + x43 + x442 + x528 + x548 + x562 + x566
 >= 4
C43: x364 + x366 + x369 + x372 + x44 + x460 + x527 + x570 >= 4
C44: x363 + x45 >= 1
C45: x357 + x362 + x46 >= 3
C46: x345 + x351 + x47 >= 3
C47: x343 + x356 + x361 + x48 >= 2
C48: x339 + x348 + x49 >= 2
C49: x332 + x336 + x342 + x350 + x355 + x360 + x50 >= 3
C5: x507 + x517 + x6 >= 2
C50: x321 + x329 + x335 + x338 + x352 + x51 >= 4
C51: x320 + x325 + x327 + x334 + x347 + x354 + x52 >= 2
C52: x317 + x324 + x331 + x341 + x358 + x53 >= 5
C53: x318 + x333 + x54 + x545 >= 3
C54: x312 + x315 + x322 + x326 + x328 + x337 + x344 + x349 + x359 + x55 >= 2
C55: x313 + x314 + x316 + x319 + x323 + x330 + x340 + x346 + x353 + x56 >= 7
C56: x309 + x310 + x57 >= 5
C57: x311 + x58 >= 1
C58: x308 + x59 >= 2
C59: x305 + x60 >= 4
C6: x506 + x7 >= 1
C60: x306 + x307 + x61 >= 1
C61: x303 + x62 >= 1
C62: x295 + x304 + x539 + x540 + x63 >= 5
C63: x294 + x302 + x401 + x440 + x549 + x567 + x64 >= 2
C64: x293 + x301 + x553 + x556 + x561 + x65 >= 2
C65: x290 + x292 + x300 + x522 + x535 + x551 + x66 >= 2
C66: x291 + x298 + x531 + x67 >= 1
C67: x289 + x296 + x299 + x441 + x550 + x555 + x68 >= 2
C68: x285 + x416 + x423 + x520 + x568 + x69 >= 4
C69: x287 + x288 + x533 + x544 + x564 + x70 >= 1
C7: x510 + x513 + x516 + x8 >= 7
C70: x284 + x286 + x558 + x71 >= 1
C71: 2 x283 + x72 >= 4
C72: 2 x282 + x73 >= 2
C73: 2 x281 + x520 + x74 >= 4
C74: 2 x280 + x299 + x75 >= 2
C75: 2 x279 + x531 + x76 >= 3
C76: 2 x278 + x77 >= 5
C77: 2 x277 + x78 >= 2
C78: 2 x276 + x302 + x79 >= 1
C79: 2 x275 + x304 + x80 >= 3
C8: x505 + x509 + x519 + x9 >= 1
C80: 2 x274 + x303 + x81 >= 2
C81: 2 x273 + x306 + x82 >= 1
C82: 2 x272 + x307 + x83 >= 2
C83: 2 x271 + x305 + x84 >= 7
C84: 2 x270 + x308 + x85 >= 5
C85: 2 x269 + x311 + x565 + x567 + x569 + x86 >= 3
C86: 2 x268 + x309 + x87 >= 2
C87: 2 x267 + x310 + x552 + x560 + x88 >= 5
C88: 2 x266 + x313 + x89 >= 2
C89: 2 x265 + x312 + x314 + x90 >= 3
C9: x10 + x502 >= 1
C90: 2 x264 + x315 + x316 + x318 + x91 >= 5
C91: 2 x263 + x317 + x92 >= 1
C92: 2 x262 + x319 + x320 + x321 + x324 + x93 >= 7
C93: 2 x261 + x322 + x325 + x329 + x332 + x94 >= 1
C94: 2 x260 + x323 + x327 + x335 + x336 + x95 >= 2
C95: 2 x259 + x326 + x330 + x331 + x339 + x350 + x96 >= 1
C96: 2 x258 + x328 + x333 + x334 + x338 + x342 + x343 + x345 + x529 + x97 >= 3
C97: 2 x257 + x337 + x340 + x341 + x348 + x351 + x98 >= 3
C98: 2 x256 + x344 + x346 + x347 + x352 + x355 + x356 + x357 + x553 + x99 >= 3
C99: x100 + 2 x255 + x349 + x353 + x354 + x358 + x360 + x361 + x362 >= 5
Bounds
0 <= x1
0 <= x10
0 <= x100
0 <= x101
0 <= x102
0 <= x103
0 <= x104
0 <= x105
0 <= x106
0 <= x107
0 <= x108
0 <= x109
0 <= x11
0 <= x110
0 <= x111
0 <= x112
0 <= x113
0 <= x114
0 <= x115
0 <= x116
0 <= x117
0 <= x118
0 <= x119
0 <= x12
0 <= x120
0 <= x121
0 <= x122
0 <= x123
0 <= x124
0 <= x125
0 <= x126
0 <= x127
0 <= x128
0 <= x129
0 <= x13
0 <= x130
0 <= x131
0 <= x132
0 <= x133
0 <= x134
0 <= x135
0 <= x136
0 <= x137
0 <= x138
0 <= x139
0 <= x14
0 <= x140
0 <= x141
0 <= x142
0 <= x143
0 <= x144
0 <= x145
0 <= x146
0 <= x147
0 <= x148
0 <= x149
0 <= x15
0 <= x150
0 <= x151
0 <= x152
0 <= x153
0 <= x154
0 <= x155
0 <= x156
0 <= x157
0 <= x158
0 <= x159
0 <= x16
0 <= x160
0 <= x161
0 <= x162
0 <= x163
0 <= x164
0 <= x165
0 <= x166
0 <= x167
0 <= x168
0 <= x169
0 <= x17
0 <= x170
0 <= x171
0 <= x172
0 <= x173
0 <= x174
0 <= x175
0 <= x176
0 <= x177
0 <= x179
0 <= x18
0 <= x180
0 <= x181
0 <= x182
0 <= x183
0 <= x184
0 <= x185
0 <= x186
0 <= x187
0 <= x188
0 <= x189
0 <= x19
0 <= x190
0 <= x191
0 <= x192
0 <= x193
0 <= x194
0 <= x195
0 <= x196
0 <= x197
0 <= x198
0 <= x199
0 <= x2
0 <= x20
0 <= x200
0 <= x201
0 <= x202
0 <= x203
0 <= x204
0 <= x205
0 <= x206
0 <= x207
0 <= x208
0 <= x209
0 <= x21
0 <= x210
0 <= x211
0 <= x212
0 <= x213
0 <= x214
0 <= x215
0 <= x216
0 <= x217
0 <= x218
0 <= x219
0 <= x22
0 <= x220
0 <= x221
0 <= x222
0 <= x223
0 <= x224
0 <= x225
0 <= x226
0 <= x227
0 <= x228
0 <= x229
0 <= x23
0 <= x230
0 <= x231
0 <= x232
0 <= x233
0 <= x234
0 <= x235
0 <= x236
0 <= x237
0 <= x238
0 <= x239
0 <= x24
0 <= x240
0 <= x241
0 <= x242
0 <= x243
0 <= x244
0 <= x245
0 <= x246
0 <= x247
0 <= x248
0 <= x249
0 <= x25
0 <= x250
0 <= x251
0 <= x252
0 <= x253
0 <= x254
0 <= x255
0 <= x256
0 <= x257
0 <= x258
0 <= x259
0 <= x26
0 <= x260
0 <= x261
0 <= x262
0 <= x263
0 <= x264
0 <= x265
0 <= x266
0 <= x267
0 <= x268
0 <= x269
0 <= x27
0 <= x270
0 <= x271
0 <= x272
0 <= x273
0 <= x274
0 <= x275
0 <= x276
0 <= x277
0 <= x278
0 <= x279
0 <= x28
0 <= x280
0 <= x281
0 <= x282
0 <= x283
0 <= x284
0 <= x285
0 <= x286
0 <= x287
0 <= x288
0 <= x289
0 <= x29
0 <= x290
0 <= x291
0 <= x292
0 <= x293
0 <= x294
0 <= x295
0 <= x296
0 <= x297
0 <= x298
0 <= x299
0 <= x3
0 <= x30
0 <= x300
0 <= x301
0 <= x302
0 <= x303
0 <= x304
0 <= x305
0 <= x306
0 <= x307
0 <= x308
0 <= x309
0 <= x31
0 <= x310
0 <= x311
0 <= x312
0 <= x313
0 <= x314
0 <= x315
0 <= x316
0 <= x317
0 <= x318
0 <= x319
0 <= x32
0 <= x320
0 <= x321
0 <= x322
0 <= x323
0 <= x324
0 <= x325
0 <= x326
0 <= x327
0 <= x328
0 <= x329
0 <= x33
0 <= x330
0 <= x331
0 <= x332
0 <= x333
0 <= x334
0 <= x335
0 <= x336
0 <= x337
0 <= x338
0 <= x339
0 <= x34
0 <= x340
0 <= x341
0 <= x342
0 <= x343
0 <= x344
0 <= x345
0 <= x346
0 <= x347
0 <= x348
0 <= x349
0 <= x35
0 <= x350
0 <= x351
0 <= x352
0 <= x353
0 <= x354
0 <= x355
0 <= x356
0 <= x357
0 <= x358
0 <= x359
0 <= x36
0 <= x360
0 <= x361
0 <= x362
0 <= x363
0 <= x364
0 <= x365
0 <= x366
0 <= x367
0 <= x368
0 <= x369
0 <= x37
0 <= x370
0 <= x371
0 <= x372
0 <= x373
0 <= x374
0 <= x375
0 <= x376
0 <= x377
0 <= x378
0 <= x379
0 <= x38
0 <= x380
0 <= x381
0 <= x382
0 <= x383
0 <= x384
0 <= x385
0 <= x386
0 <= x387
0 <= x388
0 <= x389
0 <= x39
0 <= x390
0 <= x391
0 <= x392
0 <= x393
0 <= x394
0 <= x395
0 <= x396
0 <= x397
0 <= x398
0 <= x399
0 <= x4
0 <= x40
0 <= x400
0 <= x401
0 <= x402
0 <= x403
0 <= x404
0 <= x405
0 <= x406
0 <= x407
0 <= x408
0 <= x409
0 <= x41
0 <= x410
0 <= x411
0 <= x412
0 <= x413
0 <= x414
0 <= x415
0 <= x416
0 <= x417
0 <= x418
0 <= x419
0 <= x42
0 <= x420
0 <= x421
0 <= x422
0 <= x423
0 <= x424
0 <= x425
0 <= x426
0 <= x427
0 <= x428
0 <= x429
0 <= x43
0 <= x430
0 <= x431
0 <= x432
0 <= x433
0 <= x434
0 <= x435
0 <= x436
0 <= x437
0 <= x438
0 <= x439
0 <= x44
0 <= x440
0 <= x441
0 <= x442
0 <= x443
0 <= x444
0 <= x445
0 <= x446
0 <= x447
0 <= x448
0 <= x449
0 <= x45
0 <= x450
0 <= x451
0 <= x452
0 <= x453
0 <= x454
0 <= x455
0 <= x456
0 <= x457
0 <= x458
0 <= x459
0 <= x46
0 <= x460
0 <= x461
0 <= x462
0 <= x463
0 <= x464
0 <= x465
0 <= x466
0 <= x467
0 <= x468
0 <= x469
0 <= x47
0 <= x470
0 <= x471
0 <= x472
0 <= x473
0 <= x474
0 <= x475
0 <= x476
0 <= x477
0 <= x478
0 <= x479
0 <= x48
0 <= x480
0 <= x481
0 <= x482
0 <= x483
0 <= x484
0 <= x485
0 <= x486
0 <= x487
0 <= x488
0 <= x489
0 <= x49
0 <= x490
0 <= x491
0 <= x492
0 <= x493
0 <= x494
0 <= x495
0 <= x496
0 <= x497
0 <= x498
0 <= x499
0 <= x5
0 <= x50
0 <= x500
0 <= x501
0 <= x502
0 <= x503
0 <= x504
0 <= x505
0 <= x506
0 <= x507
0 <= x508
0 <= x509
0 <= x51
0 <= x510
0 <= x511
0 <= x512
0 <= x513
0 <= x514
0 <= x515
0 <= x516
0 <= x517
0 <= x518
0 <= x519
0 <= x52
0 <= x520
0 <= x521
0 <= x522
0 <= x523
0 <= x524
0 <= x525
0 <= x526
0 <= x527
0 <= x528
0 <= x529
0 <= x53
0 <= x530
0 <= x531
0 <= x532
0 <= x533
0 <= x534
0 <= x535
0 <= x536
0 <= x537
0 <= x538
0 <= x539
0 <= x54
0 <= x540
0 <= x541
0 <= x542
0 <= x543
0 <= x544
0 <= x545
0 <= x546
0 <= x547
0 <= x548
0 <= x549
0 <= x55
0 <= x550
0 <= x551
0 <= x552
0 <= x553
0 <= x554
0 <= x555
0 <= x556
0 <= x557
0 <= x558
0 <= x559
0 <= x56
0 <= x560
0 <= x561
0 <= x562
0 <= x563
0 <= x564
0 <= x565
0 <= x566
0 <= x567
0 <= x568
0 <= x569
0 <= x57
0 <= x570
0 <= x571
0 <= x572
0 <= x573
0 <= x58
0 <= x59
0 <= x6
0 <= x60
0 <= x61
0 <= x62
0 <= x63
0 <= x64
0 <= x65
0 <= x66
0 <= x67
0 <= x68
0 <= x69
0 <= x7
0 <= x70
0 <= x71
0 <= x72
0 <= x73
0 <= x74
0 <= x75
0 <= x76
0 <= x77
0 <= x78
0 <= x79
0 <= x8
0 <= x80
0 <= x81
0 <= x82
0 <= x83
0 <= x84
0 <= x85
0 <= x86
0 <= x87
0 <= x88
0 <= x89
0 <= x9
0 <= x90
0 <= x91
0 <= x92
0 <= x93
0 <= x94
0 <= x95
0 <= x96
0 <= x97
0 <= x98
0 <= x99
Generals
x1
x10
x100
x101
x102
x103
x104
x105
x106
x107
x108
x109
x11
x110
x111
x112
x113
x114
x115
x116
x117
x118
x119
x12
x120
x121
x122
x123
x124
x125
x126
x127
x128
x129
x13
x130
x131
x132
x133
x134
x135
x136
x137
x138
x139
x14
x140
x141
x142
x143
x144
x145
x146
x147
x148
x149
x15
x150
x151
x152
x153
x154
x155
x156
x157
x158
x159
x16
x160
x161
x162
x163
x164
x165
x166
x167
x168
x169
x17
x170
x171
x172
x173
x174
x175
x176
x177
x179
x18
x180
x181
x182
x183
x184
x185
x186
x187
x188
x189
x19
x190
x191
x192
x193
x194
x195
x196
x197
x198
x199
x2
x20
x200
x201
x202
x203
x204
x205
x206
x207
x208
x209
x21
x210
x211
x212
x213
x214
x215
x216
x217
x218
x219
x22
x220
x221
x222
x223
x224
x225
x226
x227
x228
x229
x23
x230
x231
x232
x233
x234
x235
x236
x237
x238
x239
x24
x240
x241
x242
x243
x244
x245
x246
x247
x248
x249
x25
x250
x251
x252
x253
x254
x255
x256
x257
x258
x259
x26
x260
x261
x262
x263
x264
x265
x266
x267
x268
x269
x27
x270
x271
x272
x273
x274
x275
x276
x277
x278
x279
x28
x280
x281
x282
x283
x284
x285
x286
x287
x288
x289
x29
x290
x291
x292
x293
x294
x295
x296
x297
x298
x299
x3
x30
x300
x301
x302
x303
x304
x305
x306
x307
x308
x309
x31
x310
x311
x312
x313
x314
x315
x316
x317
x318
x319
x32
x320
x321
x322
x323
x324
x325
x326
x327
x328
x329
x33
x330
x331
x332
x333
x334
x335
x336
x337
x338
x339
x34
x340
x341
x342
x343
x344
x345
x346
x347
x348
x349
x35
x350
x351
x352
x353
x354
x355
x356
x357
x358
x359
x36
x360
x361
x362
x363
x364
x365
x366
x367
x368
x369
x37
x370
x371
x372
x373
x374
x375
x376
x377
x378
x379
x38
x380
x381
x382
x383
x384
x385
x386
x387
x388
x389
x39
x390
x391
x392
x393
x394
x395
x396
x397
x398
x399
x4
x40
x400
x401
x402
x403
x404
x405
x406
x407
x408
x409
x41
x410
x411
x412
x413
x414
x415
x416
x417
x418
x419
x42
x420
x421
x422
x423
x424
x425
x426
x427
x428
x429
x43
x430
x431
x432
x433
x434
x435
x436
x437
x438
x439
x44
x440
x441
x442
x443
x444
x445
x446
x447
x448
x449
x45
x450
x451
x452
x453
x454
x455
x456
x457
x458
x459
x46
x460
x461
x462
x463
x464
x465
x466
x467
x468
x469
x47
x470
x471
x472
x473
x474
x475
x476
x477
x478
x479
x48
x480
x481
x482
x483
x484
x485
x486
x487
x488
x489
x49
x490
x491
x492
x493
x494
x495
x496
x497
x498
x499
x5
x50
x500
x501
x502
x503
x504
x505
x506
x507
x508
x509
x51
x510
x511
x512
x513
x514
x515
x516
x517
x518
x519
x52
x520
x521
x522
x523
x524
x525
x526
x527
x528
x529
x53
x530
x531
x532
x533
x534
x535
x536
x537
x538
x539
x54
x540
x541
x542
x543
x544
x545
x546
x547
x548
x549
x55
x550
x551
x552
x553
x554
x555
x556
x557
x558
x559
x56
x560
x561
x562
x563
x564
x565
x566
x567
x568
x569
x57
x570
x571
x572
x573
x58
x59
x6
x60
x61
x62
x63
x64
x65
x66
x67
x68
x69
x7
x70
x71
x72
x73
x74
x75
x76
x77
x78
x79
x8
x80
x81
x82
x83
x84
x85
x86
x87
x88
x89
x9
x90
x91
x92
x93
x94
x95
x96
x97
x98
x99
End
